p cnf 30 61
c weights 1.0 1.0 1.0 1.0 1.0 1.0 1.0 1.0 1.0 1.0 1.0 1.0 1.0 1.0 1.0 1.0 1.0 1.0 1.0 1.0 1.0 1.0 1.0 1.0 0.2 1.0 0.8 1.0 0.2 1.0 0.8 1.0 0.2 1.0 0.8 1.0 0.3 1.0 0.7 1.0 0.0 1.0 1.0 1.0 0.3 1.0 0.7 1.0 0.0 1.0 1.0 1.0 0.3 1.0 0.7 1.0 0.0 1.0 1.0 1.0 
1 2 0
-1 -2 0
3 4 0
-3 -4 0
5 6 0
-5 -6 0
7 8 0
-7 -8 0
9 10 0
-9 -10 0
11 12 0
-11 -12 0
13 -1 0
1 -13 0
14 -2 0
2 -14 0
15 -3 0
3 -15 0
16 -4 0
4 -16 0
17 -5 0
5 -17 0
18 -6 0
6 -18 0
19 -1 -7 0
-19 1 0
-19 7 0
20 -1 -8 0
-20 1 0
-20 8 0
21 -2 -7 0
-21 2 0
-21 7 0
22 -2 -8 0
-22 2 0
-22 8 0
23 -3 -9 0
-23 3 0
-23 9 0
24 -3 -10 0
-24 3 0
-24 10 0
25 -4 -9 0
-25 4 0
-25 9 0
26 -4 -10 0
-26 4 0
-26 10 0
27 -5 -11 0
-27 5 0
-27 11 0
28 -5 -12 0
-28 5 0
-28 12 0
29 -6 -11 0
-29 6 0
-29 11 0
30 -6 -12 0
-30 6 0
-30 12 0
-12 0